set I := linea1 linea2;
set J := auto moto biciclette;

param F := linea1 10 linea2 15;
param D := linea1 800 linea2 900;

param B := auto 100 moto 200 biciclette 300;

param C (tr):	linea1	linea2 :=
auto			6		5
moto			4		3
biciclette		2		1
;

param A (tr):	linea1	linea2 :=
auto			2		3
moto			4		5
biciclette		6		7
;